param W_CLASS:=
1 -0.017627572734286303
2 0.03686840699760357
3 0
4 -0.5957492588983785
5 -0.5957492588983785
6 -0.5957492588983785
7 0.23725497992648725
8 -0.5957492588983785
9 -0.5957492588983785
10 0.5957492588983785
11 0.5957492588983785
12 -0.13367108378930573
13 -0.5957492588983785
14 0.5957492588983785
15 0.3706414652701292
16 -0.5957492588983785
17 -0.5957492588983785
18 -0.5957492588983785
19 0.08461437564381015;

param B_CLASS:=4.435806417318528;